c 
c G(k,n,p) graph
c graph gen seed     : 10982337
c number of vertices : 80
c max number of edges: 1600
c number of classes  : 2
c edge density       : 0.400000
c edge probability   : 0.800000
c data structure     : dense
c
c           Graph Stats
c number of vertices  : 80
c nonisolated vertices: 80
c number of edges     : 1248
c edge density        : 0.394937
c max degree          : 36
c avg degree          : 31.20
c min degree          : 23
p col 80 1248
e 1 5
e 1 11
e 1 12
e 1 13
e 1 16
e 1 18
e 1 21
e 1 23
e 1 25
e 1 29
e 1 35
e 1 37
e 1 39
e 1 42
e 1 45
e 1 49
e 1 50
e 1 52
e 1 57
e 1 59
e 1 60
e 1 61
e 1 62
e 1 63
e 1 67
e 1 70
e 1 72
e 1 78
e 2 3
e 2 4
e 2 6
e 2 7
e 2 8
e 2 9
e 2 10
e 2 14
e 2 15
e 2 24
e 2 27
e 2 28
e 2 32
e 2 33
e 2 34
e 2 36
e 2 38
e 2 40
e 2 41
e 2 48
e 2 51
e 2 54
e 2 55
e 2 56
e 2 58
e 2 64
e 2 65
e 2 69
e 2 71
e 2 74
e 2 76
e 2 79
e 3 11
e 3 12
e 3 13
e 3 16
e 3 17
e 3 19
e 3 21
e 3 25
e 3 29
e 3 35
e 3 37
e 3 39
e 3 42
e 3 44
e 3 45
e 3 46
e 3 47
e 3 49
e 3 50
e 3 57
e 3 59
e 3 60
e 3 61
e 3 62
e 3 63
e 3 66
e 3 67
e 3 68
e 3 70
e 3 72
e 3 75
e 3 78
e 4 5
e 4 11
e 4 13
e 4 16
e 4 18
e 4 19
e 4 23
e 4 25
e 4 29
e 4 35
e 4 37
e 4 39
e 4 42
e 4 44
e 4 46
e 4 47
e 4 49
e 4 50
e 4 57
e 4 59
e 4 60
e 4 61
e 4 63
e 4 66
e 4 67
e 4 70
e 4 72
e 4 75
e 5 7
e 5 8
e 5 9
e 5 10
e 5 14
e 5 22
e 5 24
e 5 26
e 5 27
e 5 28
e 5 30
e 5 31
e 5 32
e 5 34
e 5 36
e 5 41
e 5 43
e 5 48
e 5 51
e 5 53
e 5 58
e 5 64
e 5 65
e 5 74
e 5 79
e 5 80
e 6 11
e 6 12
e 6 13
e 6 16
e 6 17
e 6 19
e 6 20
e 6 21
e 6 23
e 6 29
e 6 35
e 6 39
e 6 44
e 6 45
e 6 46
e 6 49
e 6 50
e 6 52
e 6 57
e 6 59
e 6 60
e 6 61
e 6 62
e 6 63
e 6 66
e 6 67
e 6 68
e 6 70
e 6 72
e 6 75
e 6 77
e 7 11
e 7 12
e 7 16
e 7 17
e 7 18
e 7 19
e 7 20
e 7 21
e 7 23
e 7 29
e 7 35
e 7 37
e 7 42
e 7 44
e 7 46
e 7 47
e 7 50
e 7 52
e 7 57
e 7 59
e 7 60
e 7 61
e 7 62
e 7 63
e 7 66
e 7 67
e 7 70
e 7 78
e 8 11
e 8 13
e 8 18
e 8 19
e 8 20
e 8 21
e 8 23
e 8 25
e 8 35
e 8 37
e 8 39
e 8 42
e 8 44
e 8 45
e 8 46
e 8 47
e 8 50
e 8 57
e 8 59
e 8 61
e 8 62
e 8 63
e 8 66
e 8 67
e 8 68
e 8 70
e 8 72
e 8 75
e 8 77
e 9 11
e 9 16
e 9 17
e 9 19
e 9 20
e 9 23
e 9 25
e 9 35
e 9 39
e 9 42
e 9 44
e 9 45
e 9 46
e 9 47
e 9 49
e 9 50
e 9 52
e 9 57
e 9 59
e 9 60
e 9 61
e 9 62
e 9 63
e 9 68
e 9 70
e 9 72
e 9 75
e 9 77
e 9 78
e 10 11
e 10 13
e 10 16
e 10 17
e 10 18
e 10 19
e 10 21
e 10 23
e 10 25
e 10 29
e 10 35
e 10 37
e 10 39
e 10 42
e 10 45
e 10 46
e 10 50
e 10 52
e 10 57
e 10 60
e 10 61
e 10 62
e 10 66
e 10 67
e 10 72
e 10 77
e 11 24
e 11 26
e 11 28
e 11 30
e 11 31
e 11 32
e 11 36
e 11 38
e 11 40
e 11 41
e 11 43
e 11 48
e 11 51
e 11 53
e 11 54
e 11 55
e 11 56
e 11 64
e 11 65
e 11 69
e 11 71
e 11 73
e 11 74
e 11 76
e 11 79
e 12 14
e 12 15
e 12 22
e 12 24
e 12 26
e 12 27
e 12 28
e 12 31
e 12 32
e 12 34
e 12 38
e 12 40
e 12 43
e 12 48
e 12 51
e 12 53
e 12 54
e 12 56
e 12 64
e 12 65
e 12 69
e 12 71
e 12 73
e 12 74
e 12 76
e 12 79
e 12 80
e 13 14
e 13 15
e 13 22
e 13 24
e 13 27
e 13 28
e 13 30
e 13 31
e 13 32
e 13 33
e 13 36
e 13 38
e 13 48
e 13 51
e 13 53
e 13 54
e 13 55
e 13 58
e 13 64
e 13 65
e 13 69
e 13 71
e 13 74
e 13 76
e 13 79
e 13 80
e 14 16
e 14 17
e 14 18
e 14 19
e 14 20
e 14 23
e 14 29
e 14 35
e 14 37
e 14 39
e 14 42
e 14 44
e 14 45
e 14 46
e 14 47
e 14 49
e 14 52
e 14 57
e 14 59
e 14 60
e 14 61
e 14 62
e 14 63
e 14 66
e 14 68
e 14 70
e 14 72
e 14 75
e 14 77
e 15 18
e 15 19
e 15 20
e 15 23
e 15 25
e 15 29
e 15 35
e 15 37
e 15 39
e 15 42
e 15 44
e 15 46
e 15 47
e 15 50
e 15 52
e 15 57
e 15 59
e 15 60
e 15 61
e 15 62
e 15 63
e 15 67
e 15 68
e 15 70
e 15 77
e 15 78
e 16 22
e 16 24
e 16 26
e 16 28
e 16 31
e 16 32
e 16 33
e 16 34
e 16 36
e 16 38
e 16 40
e 16 41
e 16 43
e 16 48
e 16 51
e 16 53
e 16 54
e 16 55
e 16 56
e 16 58
e 16 64
e 16 65
e 16 69
e 16 73
e 16 74
e 16 80
e 17 22
e 17 24
e 17 27
e 17 28
e 17 30
e 17 31
e 17 32
e 17 33
e 17 34
e 17 36
e 17 38
e 17 41
e 17 43
e 17 48
e 17 51
e 17 53
e 17 54
e 17 56
e 17 58
e 17 65
e 17 69
e 17 71
e 17 73
e 17 74
e 17 76
e 17 79
e 17 80
e 18 24
e 18 26
e 18 27
e 18 30
e 18 31
e 18 32
e 18 33
e 18 34
e 18 36
e 18 38
e 18 40
e 18 43
e 18 48
e 18 53
e 18 54
e 18 55
e 18 56
e 18 69
e 18 73
e 18 74
e 18 76
e 18 80
e 19 22
e 19 24
e 19 26
e 19 27
e 19 28
e 19 30
e 19 31
e 19 32
e 19 33
e 19 34
e 19 36
e 19 38
e 19 40
e 19 41
e 19 48
e 19 53
e 19 55
e 19 56
e 19 64
e 19 65
e 19 69
e 19 71
e 19 73
e 19 74
e 19 76
e 19 79
e 19 80
e 20 27
e 20 28
e 20 30
e 20 31
e 20 32
e 20 33
e 20 34
e 20 36
e 20 38
e 20 43
e 20 48
e 20 53
e 20 54
e 20 55
e 20 58
e 20 64
e 20 71
e 20 73
e 20 76
e 21 22
e 21 24
e 21 26
e 21 27
e 21 28
e 21 31
e 21 33
e 21 34
e 21 36
e 21 38
e 21 40
e 21 41
e 21 43
e 21 51
e 21 53
e 21 54
e 21 55
e 21 56
e 21 58
e 21 69
e 21 71
e 21 73
e 21 76
e 21 79
e 22 25
e 22 35
e 22 44
e 22 45
e 22 46
e 22 47
e 22 49
e 22 50
e 22 52
e 22 57
e 22 59
e 22 60
e 22 61
e 22 62
e 22 63
e 22 66
e 22 67
e 22 68
e 22 72
e 22 75
e 22 77
e 22 78
e 23 24
e 23 26
e 23 28
e 23 32
e 23 34
e 23 36
e 23 38
e 23 40
e 23 41
e 23 43
e 23 48
e 23 53
e 23 54
e 23 56
e 23 64
e 23 69
e 23 71
e 23 73
e 23 74
e 23 79
e 23 80
e 24 25
e 24 29
e 24 35
e 24 37
e 24 39
e 24 42
e 24 44
e 24 45
e 24 46
e 24 47
e 24 49
e 24 50
e 24 52
e 24 57
e 24 59
e 24 60
e 24 61
e 24 62
e 24 63
e 24 66
e 24 68
e 24 70
e 24 75
e 24 77
e 24 78
e 25 27
e 25 28
e 25 30
e 25 31
e 25 34
e 25 36
e 25 41
e 25 48
e 25 53
e 25 54
e 25 55
e 25 56
e 25 58
e 25 64
e 25 65
e 25 69
e 25 71
e 25 73
e 25 74
e 25 76
e 25 79
e 25 80
e 26 29
e 26 35
e 26 39
e 26 42
e 26 44
e 26 45
e 26 47
e 26 49
e 26 50
e 26 52
e 26 57
e 26 59
e 26 60
e 26 61
e 26 62
e 26 63
e 26 66
e 26 68
e 26 78
e 27 29
e 27 35
e 27 37
e 27 39
e 27 45
e 27 49
e 27 50
e 27 52
e 27 59
e 27 60
e 27 61
e 27 62
e 27 63
e 27 66
e 27 67
e 27 72
e 27 75
e 27 77
e 27 78
e 28 29
e 28 35
e 28 37
e 28 42
e 28 44
e 28 45
e 28 46
e 28 47
e 28 50
e 28 52
e 28 57
e 28 59
e 28 60
e 28 61
e 28 62
e 28 63
e 28 66
e 28 67
e 28 68
e 28 70
e 28 72
e 28 75
e 28 78
e 29 31
e 29 32
e 29 33
e 29 34
e 29 38
e 29 40
e 29 43
e 29 51
e 29 53
e 29 54
e 29 55
e 29 56
e 29 58
e 29 64
e 29 69
e 29 71
e 29 73
e 29 76
e 29 79
e 29 80
e 30 35
e 30 37
e 30 39
e 30 42
e 30 45
e 30 46
e 30 49
e 30 50
e 30 52
e 30 57
e 30 59
e 30 62
e 30 63
e 30 66
e 30 67
e 30 70
e 30 72
e 31 35
e 31 37
e 31 39
e 31 42
e 31 46
e 31 47
e 31 52
e 31 57
e 31 60
e 31 61
e 31 62
e 31 63
e 31 67
e 31 68
e 31 70
e 31 75
e 31 78
e 32 35
e 32 37
e 32 39
e 32 42
e 32 44
e 32 45
e 32 46
e 32 47
e 32 49
e 32 57
e 32 60
e 32 61
e 32 62
e 32 63
e 32 66
e 32 67
e 32 68
e 32 72
e 32 75
e 32 77
e 32 78
e 33 35
e 33 37
e 33 42
e 33 44
e 33 46
e 33 47
e 33 49
e 33 50
e 33 52
e 33 57
e 33 59
e 33 60
e 33 62
e 33 63
e 33 66
e 33 67
e 33 68
e 33 70
e 33 72
e 33 75
e 33 77
e 33 78
e 34 35
e 34 37
e 34 42
e 34 44
e 34 45
e 34 47
e 34 49
e 34 52
e 34 57
e 34 61
e 34 62
e 34 66
e 34 68
e 34 72
e 34 75
e 34 77
e 35 38
e 35 40
e 35 43
e 35 48
e 35 51
e 35 53
e 35 54
e 35 55
e 35 58
e 35 65
e 35 69
e 35 71
e 35 73
e 35 74
e 35 76
e 35 79
e 36 37
e 36 39
e 36 42
e 36 44
e 36 45
e 36 46
e 36 47
e 36 49
e 36 50
e 36 52
e 36 59
e 36 60
e 36 61
e 36 62
e 36 66
e 36 67
e 36 70
e 36 72
e 36 75
e 36 78
e 37 38
e 37 40
e 37 41
e 37 43
e 37 48
e 37 51
e 37 53
e 37 54
e 37 56
e 37 58
e 37 64
e 37 65
e 37 69
e 37 71
e 37 73
e 37 74
e 37 79
e 38 39
e 38 42
e 38 44
e 38 45
e 38 46
e 38 47
e 38 50
e 38 52
e 38 59
e 38 61
e 38 62
e 38 66
e 38 67
e 38 70
e 38 72
e 38 77
e 38 78
e 39 41
e 39 43
e 39 48
e 39 51
e 39 53
e 39 54
e 39 55
e 39 58
e 39 64
e 39 65
e 39 71
e 39 76
e 39 79
e 40 44
e 40 45
e 40 46
e 40 47
e 40 50
e 40 52
e 40 61
e 40 63
e 40 68
e 40 70
e 40 75
e 40 77
e 41 45
e 41 46
e 41 47
e 41 57
e 41 59
e 41 60
e 41 61
e 41 62
e 41 63
e 41 67
e 41 68
e 41 70
e 41 72
e 41 75
e 41 77
e 41 78
e 42 48
e 42 51
e 42 53
e 42 54
e 42 55
e 42 58
e 42 64
e 42 65
e 42 71
e 42 73
e 42 74
e 42 76
e 42 79
e 42 80
e 43 44
e 43 45
e 43 46
e 43 47
e 43 49
e 43 50
e 43 52
e 43 57
e 43 59
e 43 62
e 43 63
e 43 67
e 43 68
e 43 70
e 43 72
e 43 75
e 43 77
e 43 78
e 44 48
e 44 51
e 44 53
e 44 55
e 44 56
e 44 58
e 44 64
e 44 65
e 44 69
e 44 71
e 44 73
e 44 74
e 44 76
e 44 79
e 44 80
e 45 48
e 45 51
e 45 54
e 45 55
e 45 56
e 45 64
e 45 65
e 45 69
e 45 71
e 45 73
e 45 74
e 45 80
e 46 48
e 46 51
e 46 55
e 46 56
e 46 58
e 46 64
e 46 65
e 46 69
e 46 71
e 46 73
e 46 74
e 46 76
e 46 79
e 46 80
e 47 48
e 47 53
e 47 55
e 47 56
e 47 58
e 47 64
e 47 69
e 47 73
e 47 74
e 47 76
e 47 79
e 48 49
e 48 52
e 48 57
e 48 59
e 48 60
e 48 62
e 48 66
e 48 67
e 48 68
e 48 70
e 48 72
e 48 75
e 48 77
e 48 78
e 49 51
e 49 53
e 49 54
e 49 55
e 49 58
e 49 64
e 49 65
e 49 73
e 49 74
e 49 76
e 49 79
e 50 51
e 50 53
e 50 55
e 50 58
e 50 64
e 50 65
e 50 69
e 50 73
e 50 74
e 50 76
e 50 79
e 51 52
e 51 57
e 51 59
e 51 60
e 51 66
e 51 67
e 51 70
e 51 72
e 51 77
e 51 78
e 52 53
e 52 54
e 52 55
e 52 56
e 52 58
e 52 64
e 52 65
e 52 69
e 52 71
e 52 73
e 52 74
e 52 76
e 52 79
e 52 80
e 53 60
e 53 61
e 53 62
e 53 63
e 53 70
e 53 77
e 54 57
e 54 60
e 54 62
e 54 63
e 54 66
e 54 67
e 54 68
e 54 70
e 54 72
e 54 75
e 54 77
e 54 78
e 55 57
e 55 60
e 55 62
e 55 63
e 55 66
e 55 68
e 55 70
e 55 72
e 55 75
e 55 77
e 55 78
e 56 57
e 56 59
e 56 60
e 56 61
e 56 62
e 56 63
e 56 66
e 56 67
e 56 68
e 56 70
e 56 72
e 56 77
e 56 78
e 57 58
e 57 65
e 57 69
e 57 73
e 57 74
e 57 76
e 57 79
e 57 80
e 58 59
e 58 60
e 58 61
e 58 63
e 58 66
e 58 68
e 58 72
e 58 75
e 58 77
e 58 78
e 59 64
e 59 65
e 59 69
e 59 71
e 59 73
e 59 74
e 59 76
e 59 80
e 60 65
e 60 69
e 60 74
e 60 76
e 60 79
e 60 80
e 61 64
e 61 65
e 61 69
e 61 71
e 61 73
e 61 74
e 61 76
e 62 64
e 62 65
e 62 69
e 62 73
e 62 74
e 62 76
e 62 79
e 63 64
e 63 65
e 63 69
e 63 71
e 63 73
e 63 74
e 63 79
e 63 80
e 64 67
e 64 68
e 64 70
e 64 72
e 64 75
e 64 78
e 65 66
e 65 67
e 65 68
e 65 70
e 65 72
e 65 75
e 65 77
e 65 78
e 66 69
e 66 71
e 66 73
e 66 74
e 66 76
e 66 79
e 66 80
e 67 69
e 67 71
e 67 73
e 67 74
e 67 76
e 67 79
e 67 80
e 68 69
e 68 71
e 68 73
e 68 74
e 68 76
e 68 79
e 68 80
e 69 72
e 69 75
e 69 77
e 69 78
e 70 71
e 70 73
e 70 74
e 70 76
e 70 79
e 70 80
e 71 72
e 71 75
e 71 77
e 71 78
e 72 73
e 72 74
e 72 76
e 72 79
e 73 75
e 73 78
e 74 75
e 74 77
e 74 78
e 75 76
e 75 80
e 76 77
e 76 78
e 77 79
e 77 80
e 78 79
e 78 80
